35	2

10	10	

0	0	0	3	2	3	4	
3	4	2	3	5	7	8	
9	2	1	4	5	6	7	8	
5	2	4	2	5	8	
4	1	5	2	11	12	
2	4	5	1	10	
1	3	3	2	11	12	
6	3	2	1	9	
4	5	6	2	13	14	
4	3	2	2	15	16	
5	1	2	1	13	
3	5	2	1	13	
3	5	3	4	17	18	19	20	
8	1	1	2	17	20	
1	5	1	1	17	
2	2	3	2	18	20	
1	2	4	4	21	22	23	24	
2	3	2	2	22	24	
2	4	2	1	24	
2	1	1	1	24	
1	1	2	1	27	
2	2	1	3	25	26	28	
3	2	5	1	28	
5	5	1	1	28	
1	4	1	2	30	31	
2	1	5	1	30	
2	2	1	2	31	32	
6	1	2	1	29	
2	3	4	1	33	
5	2	4	1	33	
2	2	3	2	33	34	
4	1	2	2	33	34	
1	4	2	1	35	
1	5	2	1	35	
0	0	0	0	
